(set-info :smt-lib-version 2.6)
(set-logic ALL)
(set-info :source |
Benchmarks used in the followin paper:
Big proof engines as little proof engines: new results on rewrite-based satisfiability procedure
Alessandro Armando, Maria Paola Bonacina, Silvio Ranise, Stephan Schulz. 
PDPAR'05
http://www.ai.dist.unige.it/pdpar05/


|)
(set-info :category "crafted")
(set-info :status unsat)

(declare-sort Element 0)
(declare-fun a_100 () (Seq Element))
(declare-fun a_102 () (Seq Element))
(declare-fun a_104 () (Seq Element))
(declare-fun a_105 () (Seq Element))
(declare-fun a_106 () (Seq Element))
(declare-fun a_107 () (Seq Element))
(declare-fun a_109 () (Seq Element))
(declare-fun a_111 () (Seq Element))
(declare-fun a_113 () (Seq Element))
(declare-fun a_114 () (Seq Element))
(declare-fun a_96 () (Seq Element))
(declare-fun a_98 () (Seq Element))
(declare-fun e_101 () Element)
(declare-fun e_103 () Element)
(declare-fun e_108 () Element)
(declare-fun e_110 () Element)
(declare-fun e_112 () Element)
(declare-fun e_95 () Element)
(declare-fun e_97 () Element)
(declare-fun e_99 () Element)
(declare-fun a1 () (Seq Element))
(declare-fun i1 () Int)
(declare-fun i2 () Int)
(assert (= a_100 (seq.update a_98 i2 (seq.unit e_99))))
(assert (= a_102 (seq.update a_100 i1 (seq.unit e_101))))
(assert (= a_104 (seq.update a_102 i2 (seq.unit e_103))))
(assert (= a_105 (seq.update a_104 i2 (seq.unit e_103))))
(assert (= a_106 (seq.update a1 i1 (seq.unit e_97))))
(assert (= a_107 (seq.update a_106 i2 (seq.unit e_95))))
(assert (= a_109 (seq.update a_107 i1 (seq.unit e_108))))
(assert (= a_111 (seq.update a_109 i2 (seq.unit e_110))))
(assert (= a_113 (seq.update a_111 i2 (seq.unit e_112))))
(assert (= a_114 (seq.update a_113 i2 (seq.unit e_112))))
(assert (= a_96 (seq.update a1 i2 (seq.unit e_95))))
(assert (= a_98 (seq.update a_96 i1 (seq.unit e_97))))
(assert (= e_101 (seq.nth a_98 i2)))
(assert (= e_103 (seq.nth a_102 i2)))
(assert (= e_108 (seq.nth a_107 i2)))
(assert (= e_110 (seq.nth a_107 i1)))
(assert (= e_112 (seq.nth a_111 i2)))
(assert (= e_95 (seq.nth a1 i1)))
(assert (= e_97 (seq.nth a1 i2)))
(assert (= e_99 (seq.nth a_98 i1)))
(assert (not (= a_105 a_114)))
(check-sat)
(exit)
